
--- Job Opgave 7.gms Start 08/14/25 16:43:06 50.3.0 5a352073 DEX-DEG x86 64bit/macOS
--- Applying:
    /Library/Frameworks/GAMS.framework/Versions/50/Resources/gmsprmun.txt
--- GAMS Parameters defined
    Input "/Users/lukaskranker/Library/CloudStorage/OneDrive-KøbenhavnsUniversitet/Uni/6. År/PFO2025/Opgave 7/Opgave 7.gms"
    PageSize 0
    ScrDir "/Users/lukaskranker/Library/CloudStorage/OneDrive-KøbenhavnsUniversitet/Uni/6. År/PFO2025/Opgave 7/225a/"
    SysDir /Library/Frameworks/GAMS.framework/Versions/50/Resources/
    LogOption 3
    AppendLog 1
    ErrMsg 1
    ErrorLog 99
    IDE 1
    LstTitleLeftAligned 1
Licensee: Course License                                 G250404+0003Ac-GEN
          University of Copenhagen                                  DCE4232
          225a/gamslice.dat
          node:10959501 mem:16 cores:6 ipport:52421 v:2                    
          Course license for use within the course and related course work
          The expiration date of time-limited license is Oct 01, 2025
System information: 6 physical cores and 16 Gb physical memory detected
GAMS 50.3.0   Copyright (C) 1987-2025 GAMS Development. All rights reserved
--- Starting compilation
--- Opgave 7.gms(59) 3 Mb
--- GDXin=/Users/lukaskranker/Library/CloudStorage/OneDrive-KøbenhavnsUniversitet/Uni/6. År/PFO2025/Opgave 7/weekly_returns_2013_2025.gdx
--- GDX File ($gdxIn) /Users/lukaskranker/Library/CloudStorage/OneDrive-KøbenhavnsUniversitet/Uni/6. År/PFO2025/Opgave 7/weekly_returns_2013_2025.gdx
--- Opgave 7.gms(71) 5 Mb
--- GDXin=/Users/lukaskranker/Library/CloudStorage/OneDrive-KøbenhavnsUniversitet/Uni/6. År/PFO2025/Opgave 7/Initial_inv_strat_CVaR.gdx
--- GDX File ($gdxIn) /Users/lukaskranker/Library/CloudStorage/OneDrive-KøbenhavnsUniversitet/Uni/6. År/PFO2025/Opgave 7/Initial_inv_strat_CVaR.gdx
--- Opgave 7.gms(257) 5 Mb
--- Starting execution: elapsed 0:00:00.050
--- Opgave 7.gms(177) 8 Mb
--- Generating LP model MinCVaR_Opg7
--- Opgave 7.gms(236) 8 Mb
--- LOOPS loop_no = loop1
---   1,475 rows  1,474 columns  4,857 non-zeroes
--- Range statistics (absolute non-zero finite values)
--- RHS       [min, max] : [ 4.427E-03, 1.007E+00] - Zero values observed as well
--- Bound     [min, max] : [        NA,        NA] - Zero values observed as well
--- Matrix    [min, max] : [ 1.795E-06, 2.000E+00]
--- Executing CPLEX (Solvelink=2): elapsed 0:00:00.103

IBM ILOG CPLEX   50.3.0 5a352073 Jul 30, 2025          DEG x86 64bit/macOS    

--- GAMS/CPLEX licensed for continuous and discrete problems.
--- GMO setup time: 0.00s
--- Space for names approximately 0.14 Mb
--- Use option 'names no' to turn use of names off
--- GMO memory 0.84 Mb (peak 0.85 Mb)
--- Dictionary memory 0.00 Mb
--- Cplex 22.1.2.0 link memory 0.04 Mb (peak 0.27 Mb)
--- Starting Cplex

Version identifier: 22.1.2.0 | 2024-12-02 | 8bd2200c8
CPXPARAM_Advance                                 0
CPXPARAM_MIP_Display                             4
CPXPARAM_MIP_Pool_Capacity                       0
CPXPARAM_MIP_Tolerances_AbsMIPGap                0
Tried aggregator 1 time.
LP Presolve eliminated 720 rows and 12 columns.
Aggregator did 11 substitutions.
Reduced LP has 743 rows, 1451 columns, and 3373 nonzeros.
Presolve time = 0.00 sec. (1.93 ticks)
Symmetry aggregator did 2055 additional substitutions.

Iteration log . . .
Iteration:     1   Scaled dual infeas =             0.161916
Iteration:    35   Dual objective     =             1.006436

Dual crossover.
  Dual:  Fixing 19 variables.
       18 DMoves:  Infeasibility  0.00000000e+00  Objective  1.00656781e+00
        0 DMoves:  Infeasibility  0.00000000e+00  Objective  1.00656781e+00
  Dual:  Pushed 19, exchanged 0.
  Primal:  Fixing 1 variable.
        0 PMoves:  Infeasibility  0.00000000e+00  Objective  1.00656781e+00
  Primal:  Pushed 1, exchanged 0.

--- LP status (1): optimal.
--- Cplex Time: 0.01sec (det. 3.62 ticks)


Optimal solution found
Objective:            1.006568

--- Reading solution for model MinCVaR_Opg7
--- Executing after solve: elapsed 0:00:00.234
--- Opgave 7.gms(177) 8 Mb
--- Generating LP model MinCVaR_Opg7
--- Opgave 7.gms(236) 8 Mb
--- LOOPS loop_no = loop2
---   1,475 rows  1,474 columns  4,854 non-zeroes
--- Range statistics (absolute non-zero finite values)
--- RHS       [min, max] : [ 4.427E-03, 1.013E+00] - Zero values observed as well
--- Bound     [min, max] : [        NA,        NA] - Zero values observed as well
--- Matrix    [min, max] : [ 6.002E-06, 2.000E+00]
--- Executing CPLEX (Solvelink=2): elapsed 0:00:00.283

IBM ILOG CPLEX   50.3.0 5a352073 Jul 30, 2025          DEG x86 64bit/macOS    

--- GAMS/CPLEX licensed for continuous and discrete problems.
--- GMO setup time: 0.00s
--- Space for names approximately 0.14 Mb
--- Use option 'names no' to turn use of names off
--- GMO memory 0.84 Mb (peak 0.85 Mb)
--- Dictionary memory 0.00 Mb
--- Cplex 22.1.2.0 link memory 0.04 Mb (peak 0.27 Mb)
--- Starting Cplex

Version identifier: 22.1.2.0 | 2024-12-02 | 8bd2200c8
CPXPARAM_Advance                                 0
CPXPARAM_MIP_Display                             4
CPXPARAM_MIP_Pool_Capacity                       0
CPXPARAM_MIP_Tolerances_AbsMIPGap                0
Tried aggregator 1 time.
LP Presolve eliminated 721 rows and 12 columns.
Aggregator did 11 substitutions.
Reduced LP has 742 rows, 1451 columns, and 3368 nonzeros.
Presolve time = 0.00 sec. (1.93 ticks)
Symmetry aggregator did 2055 additional substitutions.

Iteration log . . .
Iteration:     1   Scaled dual infeas =             0.000000
Iteration:     2   Dual objective     =             1.013057

Dual crossover.
  Dual:  Fixed no variables.
  Primal:  Fixing 1 variable.
        0 PMoves:  Infeasibility  0.00000000e+00  Objective  1.01654133e+00
  Primal:  Pushed 1, exchanged 0.

--- LP status (1): optimal.
--- Cplex Time: 0.01sec (det. 4.12 ticks)


Optimal solution found
Objective:            1.016541

--- Reading solution for model MinCVaR_Opg7
--- Executing after solve: elapsed 0:00:00.409
--- Opgave 7.gms(177) 8 Mb
*** Status: Normal completion
--- Job Opgave 7.gms Stop 08/14/25 16:43:06 elapsed 0:00:00.410
